40
1 0 2
2 0 2
2 1 3
3 0 3
3 1 1
3 2 2
4 0 3
4 1 1
4 2 2
4 3 2
5 0 2
5 1 3
5 2 1
5 3 3
5 4 3
6 0 3
6 1 3
6 2 1
6 3 2
6 4 3
6 5 2
7 0 3
7 1 2
7 2 3
7 3 2
7 4 1
7 5 2
7 6 2
8 0 2
8 1 3
8 2 1
8 3 3
8 4 1
8 5 1
8 6 1
8 7 3
9 0 1
9 1 1
9 2 2
9 3 1
9 4 3
9 5 1
9 6 2
9 7 2
9 8 2
10 0 2
10 1 3
10 2 2
10 3 2
10 4 2
10 5 2
10 6 2
10 7 1
10 8 1
10 9 1
11 0 2
11 1 1
11 2 2
11 3 3
11 4 2
11 5 2
11 6 2
11 7 1
11 8 3
11 9 3
11 10 2
12 0 2
12 1 2
12 2 2
12 3 1
12 4 2
12 5 3
12 6 3
12 7 3
12 8 2
12 9 1
12 10 3
12 11 1
13 0 1
13 1 1
13 2 1
13 3 1
13 4 1
13 5 1
13 6 3
13 7 3
13 8 3
13 9 1
13 10 1
13 11 1
13 12 3
14 0 3
14 1 2
14 2 1
14 3 1
14 4 3
14 5 3
14 6 3
14 7 1
14 8 1
14 9 3
14 10 2
14 11 2
14 12 2
14 13 3
15 0 3
15 1 3
15 2 1
15 3 1
15 4 3
15 5 1
15 6 3
15 7 3
15 8 2
15 9 3
15 10 1
15 11 2
15 12 2
15 13 1
15 14 1
16 0 2
16 1 2
16 2 1
16 3 3
16 4 2
16 5 1
16 6 2
16 7 3
16 8 3
16 9 1
16 10 2
16 11 3
16 12 1
16 13 1
16 14 1
16 15 2
17 0 3
17 1 3
17 2 3
17 3 2
17 4 2
17 5 2
17 6 3
17 7 2
17 8 1
17 9 1
17 10 1
17 11 3
17 12 3
17 13 2
17 14 3
17 15 1
17 16 3
18 0 2
18 1 1
18 2 1
18 3 1
18 4 3
18 5 2
18 6 1
18 7 1
18 8 3
18 9 2
18 10 3
18 11 1
18 12 2
18 13 3
18 14 1
18 15 1
18 16 3
18 17 2
19 0 1
19 1 2
19 2 1
19 3 1
19 4 2
19 5 1
19 6 2
19 7 3
19 8 2
19 9 2
19 10 3
19 11 3
19 12 3
19 13 3
19 14 2
19 15 1
19 16 1
19 17 3
19 18 3
20 0 3
20 1 1
20 2 1
20 3 2
20 4 3
20 5 3
20 6 2
20 7 3
20 8 2
20 9 2
20 10 1
20 11 2
20 12 1
20 13 1
20 14 1
20 15 3
20 16 3
20 17 1
20 18 3
20 19 2
21 0 2
21 1 1
21 2 3
21 3 3
21 4 1
21 5 3
21 6 1
21 7 3
21 8 2
21 9 1
21 10 3
21 11 3
21 12 3
21 13 1
21 14 1
21 15 3
21 16 3
21 17 2
21 18 3
21 19 1
21 20 3
22 0 3
22 1 3
22 2 1
22 3 3
22 4 2
22 5 1
22 6 2
22 7 2
22 8 2
22 9 2
22 10 3
22 11 3
22 12 1
22 13 2
22 14 1
22 15 1
22 16 3
22 17 2
22 18 2
22 19 1
22 20 2
22 21 3
23 0 3
23 1 1
23 2 2
23 3 3
23 4 3
23 5 3
23 6 2
23 7 3
23 8 2
23 9 1
23 10 1
23 11 3
23 12 2
23 13 3
23 14 2
23 15 3
23 16 1
23 17 3
23 18 1
23 19 3
23 20 1
23 21 3
23 22 3
24 0 2
24 1 3
24 2 3
24 3 1
24 4 1
24 5 3
24 6 2
24 7 1
24 8 2
24 9 2
24 10 3
24 11 3
24 12 2
24 13 1
24 14 3
24 15 1
24 16 3
24 17 1
24 18 1
24 19 2
24 20 1
24 21 1
24 22 2
24 23 2
25 0 1
25 1 2
25 2 2
25 3 1
25 4 3
25 5 1
25 6 2
25 7 2
25 8 1
25 9 3
25 10 3
25 11 1
25 12 1
25 13 2
25 14 2
25 15 3
25 16 3
25 17 2
25 18 3
25 19 2
25 20 2
25 21 2
25 22 1
25 23 2
25 24 1
26 0 2
26 1 3
26 2 1
26 3 1
26 4 3
26 5 1
26 6 1
26 7 2
26 8 1
26 9 3
26 10 2
26 11 2
26 12 3
26 13 2
26 14 1
26 15 1
26 16 1
26 17 2
26 18 1
26 19 2
26 20 3
26 21 1
26 22 3
26 23 1
26 24 2
26 25 2
27 0 3
27 1 2
27 2 1
27 3 3
27 4 2
27 5 3
27 6 3
27 7 3
27 8 3
27 9 2
27 10 1
27 11 3
27 12 1
27 13 1
27 14 2
27 15 2
27 16 2
27 17 1
27 18 1
27 19 1
27 20 2
27 21 2
27 22 1
27 23 2
27 24 1
27 25 2
27 26 2
28 0 3
28 1 1
28 2 2
28 3 2
28 4 1
28 5 2
28 6 2
28 7 1
28 8 3
28 9 1
28 10 2
28 11 1
28 12 1
28 13 1
28 14 2
28 15 3
28 16 1
28 17 1
28 18 3
28 19 1
28 20 1
28 21 1
28 22 3
28 23 3
28 24 1
28 25 2
28 26 3
28 27 2
29 0 3
29 1 3
29 2 3
29 3 1
29 4 3
29 5 2
29 6 3
29 7 3
29 8 2
29 9 2
29 10 1
29 11 1
29 12 1
29 13 3
29 14 1
29 15 2
29 16 3
29 17 2
29 18 3
29 19 1
29 20 3
29 21 1
29 22 3
29 23 2
29 24 2
29 25 2
29 26 1
29 27 2
29 28 1
30 0 3
30 1 3
30 2 2
30 3 2
30 4 3
30 5 2
30 6 1
30 7 2
30 8 1
30 9 1
30 10 3
30 11 2
30 12 3
30 13 3
30 14 3
30 15 1
30 16 3
30 17 2
30 18 1
30 19 3
30 20 2
30 21 2
30 22 2
30 23 2
30 24 2
30 25 2
30 26 1
30 27 1
30 28 3
30 29 1
31 0 2
31 1 2
31 2 3
31 3 2
31 4 3
31 5 2
31 6 3
31 7 3
31 8 1
31 9 1
31 10 3
31 11 2
31 12 1
31 13 1
31 14 2
31 15 2
31 16 2
31 17 1
31 18 3
31 19 3
31 20 3
31 21 3
31 22 2
31 23 3
31 24 3
31 25 3
31 26 2
31 27 1
31 28 2
31 29 2
31 30 3
32 0 3
32 1 3
32 2 1
32 3 3
32 4 3
32 5 3
32 6 2
32 7 1
32 8 1
32 9 2
32 10 1
32 11 1
32 12 1
32 13 3
32 14 2
32 15 3
32 16 1
32 17 1
32 18 2
32 19 2
32 20 3
32 21 1
32 22 1
32 23 2
32 24 3
32 25 2
32 26 1
32 27 3
32 28 2
32 29 1
32 30 1
32 31 2
33 0 3
33 1 1
33 2 3
33 3 3
33 4 2
33 5 2
33 6 1
33 7 1
33 8 3
33 9 2
33 10 2
33 11 3
33 12 3
33 13 3
33 14 3
33 15 3
33 16 3
33 17 2
33 18 3
33 19 3
33 20 3
33 21 3
33 22 3
33 23 1
33 24 1
33 25 1
33 26 3
33 27 2
33 28 1
33 29 2
33 30 3
33 31 1
33 32 1
34 0 3
34 1 1
34 2 3
34 3 2
34 4 3
34 5 1
34 6 2
34 7 1
34 8 1
34 9 1
34 10 1
34 11 1
34 12 2
34 13 3
34 14 3
34 15 3
34 16 1
34 17 3
34 18 2
34 19 2
34 20 3
34 21 3
34 22 2
34 23 1
34 24 1
34 25 3
34 26 2
34 27 1
34 28 2
34 29 2
34 30 3
34 31 3
34 32 1
34 33 3
35 0 3
35 1 2
35 2 1
35 3 1
35 4 1
35 5 2
35 6 3
35 7 1
35 8 2
35 9 3
35 10 3
35 11 3
35 12 2
35 13 3
35 14 3
35 15 3
35 16 2
35 17 2
35 18 1
35 19 3
35 20 3
35 21 2
35 22 3
35 23 3
35 24 3
35 25 2
35 26 2
35 27 2
35 28 2
35 29 2
35 30 1
35 31 1
35 32 3
35 33 2
35 34 1
36 0 1
36 1 3
36 2 2
36 3 2
36 4 2
36 5 2
36 6 3
36 7 1
36 8 3
36 9 3
36 10 1
36 11 2
36 12 1
36 13 2
36 14 2
36 15 3
36 16 1
36 17 1
36 18 3
36 19 1
36 20 3
36 21 2
36 22 2
36 23 2
36 24 1
36 25 1
36 26 2
36 27 1
36 28 1
36 29 1
36 30 2
36 31 1
36 32 3
36 33 1
36 34 1
36 35 3
37 0 3
37 1 1
37 2 3
37 3 1
37 4 2
37 5 2
37 6 2
37 7 1
37 8 3
37 9 2
37 10 3
37 11 2
37 12 1
37 13 1
37 14 2
37 15 2
37 16 1
37 17 2
37 18 2
37 19 1
37 20 3
37 21 3
37 22 3
37 23 2
37 24 1
37 25 2
37 26 3
37 27 2
37 28 1
37 29 3
37 30 3
37 31 3
37 32 2
37 33 2
37 34 1
37 35 3
37 36 1
38 0 3
38 1 1
38 2 3
38 3 1
38 4 3
38 5 1
38 6 2
38 7 2
38 8 1
38 9 3
38 10 2
38 11 2
38 12 1
38 13 2
38 14 1
38 15 3
38 16 3
38 17 1
38 18 3
38 19 3
38 20 3
38 21 3
38 22 2
38 23 1
38 24 3
38 25 1
38 26 3
38 27 1
38 28 3
38 29 1
38 30 2
38 31 1
38 32 2
38 33 3
38 34 2
38 35 1
38 36 3
38 37 3
39 0 2
39 1 3
39 2 1
39 3 2
39 4 1
39 5 3
39 6 3
39 7 3
39 8 3
39 9 3
39 10 1
39 11 1
39 12 1
39 13 1
39 14 1
39 15 2
39 16 3
39 17 2
39 18 2
39 19 2
39 20 1
39 21 3
39 22 2
39 23 2
39 24 1
39 25 1
39 26 3
39 27 1
39 28 2
39 29 2
39 30 1
39 31 3
39 32 2
39 33 1
39 34 1
39 35 1
39 36 1
39 37 1
39 38 3
